
Gurobi 11.0.0 (linux64) logging started Tue Sep 17 01:38:34 2024

Set parameter LogFile to value "gurobi.log"
Set parameter InfUnbdInfo to value 1
Gurobi Optimizer version 11.0.0 build v11.0.0rc2 (linux64 - "Ubuntu 22.04.4 LTS")

CPU model: AMD EPYC 7V13 64-Core Processor, instruction set [SSE2|AVX|AVX2]
Thread count: 128 physical cores, 128 logical processors, using up to 32 threads

Optimize a model with 54 rows, 220 columns and 131 nonzeros
Model fingerprint: 0xe74edb0c
Model has 178 quadratic constraints
Model has 3 general constraints
Variable types: 60 continuous, 160 integer (0 binary)
Coefficient statistics:
  Matrix range     [1e+00, 2e+05]
  QMatrix range    [1e+00, 2e+05]
  QLMatrix range   [1e+00, 2e+05]
  Objective range  [1e+00, 1e+00]
  Bounds range     [1e+00, 3e+10]
  RHS range        [1e+00, 2e+06]
  QRHS range       [1e+00, 2e+06]
Warning: Model contains large bounds
         Consider reformulating model or setting NumericFocus parameter
         to avoid numerical issues.
Using branch priorities (all 0).
Presolve added 91 rows and 52 columns
Presolve time: 0.01s
Presolved: 583 rows, 317 columns, 2576 nonzeros
Presolved model has 8 SOS constraint(s)
Presolved model has 83 bilinear constraint(s)
Warning: Model contains variables with very large bounds participating
         in product terms.
         Presolve was not able to compute smaller bounds for these variables.
         Consider bounding these variables or reformulating the model.


Solving non-convex MIQCP

Variable types: 155 continuous, 162 integer (50 binary)

Root relaxation: objective 1.610022e+03, 191 iterations, 0.00 seconds (0.00 work units)

    Nodes    |    Current Node    |     Objective Bounds      |     Work
 Expl Unexpl |  Obj  Depth IntInf | Incumbent    BestBd   Gap | It/Node Time

     0     0 1610.02238    0   85          - 1610.02238      -     -    0s
     0     0 1612.02238    0   97          - 1612.02238      -     -    0s
H    0     0                    6.721001e+09 1612.02238   100%     -    0s
     0     0 1642.34389    0   93 6.7210e+09 1642.34389   100%     -    0s
     0     0 1642.34389    0   93 6.7210e+09 1642.34389   100%     -    0s
H    0     0                    6.721000e+09 1645.62655   100%     -    0s
     0     0 1663.76432    0   91 6.7210e+09 1663.76432   100%     -    0s
     0     0 2041.35856    0  129 6.7210e+09 2041.35856   100%     -    0s
H    0     0                    723083.99993 2041.73268   100%     -    0s
     0     0 2404.40943    0   79 723084.000 2404.40943   100%     -    0s
     0     0 2421.58377    0  114 723084.000 2421.58377   100%     -    0s
     0     0 2449.06029    0  127 723084.000 2449.06029   100%     -    0s
     0     0 2456.48244    0  140 723084.000 2456.48244   100%     -    0s
     0     0 2499.76355    0  140 723084.000 2499.76355   100%     -    0s
     0     0 2499.76355    0  140 723084.000 2499.76355   100%     -    0s
     0     0 2499.76355    0  140 723084.000 2499.76355   100%     -    0s
     0     0 2499.76355    0  141 723084.000 2499.76355   100%     -    0s
H    0     0                    570994.48393 2503.05613   100%     -    0s
     0     0 3304.23109    0  141 570994.484 3304.23109  99.4%     -    0s
     0     0 3304.23109    0  141 570994.484 3304.23109  99.4%     -    0s
     0     0 4919.56994    0  140 570994.484 4919.56994  99.1%     -    0s
H    0     0                    406152.41970 4919.56994  98.8%     -    0s
H    0     0                    366177.41970 4919.56994  98.7%     -    0s
H    0     0                    343557.41970 4919.56994  98.6%     -    0s
     0     2 4919.56994    0  138 343557.420 4919.56994  98.6%     -    0s
H   32    50                    343352.41970 4919.56994  98.6%  21.8    0s
H  118    91                    343157.41970 4919.56994  98.6%  14.6    1s
H  543   367                    166527.00000 17952.1410  89.2%  10.5    1s
H  545   367                    86804.140319 17952.1410  79.3%  10.4    1s
*  885   402              15    86438.498067 80808.9062  6.51%   8.6    1s
*  888   402              17    86436.994854 80808.9062  6.51%   8.6    1s
*  960   402              21    86243.498067 80808.9062  6.30%   8.3    1s
* 1045   402              25    85149.521523 80808.9062  5.10%   7.9    1s
* 1097   423              23    83650.761787 80808.9062  3.40%   7.8    1s
* 1442   438              31    82939.948645 80809.2724  2.57%   7.1    1s
* 1503   438              20    82907.437328 80809.2724  2.53%   7.0    1s
* 1504   438              20    82712.437328 80809.2724  2.30%   7.0    1s
* 1840   412              18    82456.243603 80809.2724  2.00%   6.7    1s
H 3972   347                    82386.748652 80861.3509  1.85%   5.2    2s

Cutting planes:
  Learned: 4
  Gomory: 7
  Implied bound: 43
  MIR: 37
  Flow cover: 1
  RLT: 62
  Relax-and-lift: 1

Explored 6441 nodes (27023 simplex iterations) in 3.17 seconds (0.34 work units)
Thread count was 32 (of 128 available processors)

Solution count 10: 82386.7 82456.2 82712.4 ... 86438.5

Optimal solution found (tolerance 1.00e-10)
Warning: max constraint violation (7.6333e-04) exceeds tolerance
Warning: max general constraint violation (7.6333e-04) exceeds tolerance
Best objective 8.238674865191e+04, best bound 8.238674865191e+04, gap 0.0000%
